/*********************************************
 * OPL 12.7.1.0 Data
 * Author: La catedra
 * Creation Date: Aug 29, 2019 at 8:44:07 PM
 *********************************************/

CANT_COD_POST = 15; //Cantidad de cod postales / cajas 

CAJAS = [ 	10, 10, 10, 10, 10, 10, 10, 10,
			10, 10, 10, 10, 10, 10, 10 ]; //Cajas por cod post

DESTINOS_POR_PASADA = 4;

TIEMPO_PROC_CAJA = 1; //Expresado en segundos

// Output santi aguilera CPLEX: 300